clingo version 5.5.2
Reading from stdin
Solving...
SATISFIABLE

Models       : 1+
Calls        : 1
Time         : 2.941s (Solving: 0.00s 1st Model: 0.00s Unsat: 0.00s)
CPU Time     : 0.156s

Choices      : 160     
Conflicts    : 4        (Analyzed: 4)
Restarts     : 0       
Stab. Tests  : 8        (Full: 4 Partial: 4)
Model-Level  : 34.0    
Problems     : 1        (Average Length: 0.00 Splits: 0)
Lemmas       : 4        (Deleted: 0)
  Binary     : 1        (Ratio:  25.00%)
  Ternary    : 1        (Ratio:  25.00%)
  Conflict   : 4        (Average Length:    1.8 Ratio: 100.00%) 
  Loop       : 0        (Average Length:    0.0 Ratio:   0.00%) 
  Other      : 0        (Average Length:    0.0 Ratio:   0.00%) 
Backjumps    : 4        (Average:  3.00 Max:   5 Sum:     12)
  Executed   : 4        (Average:  3.00 Max:   5 Sum:     12 Ratio: 100.00%)
  Bounded    : 0        (Average:  0.00 Max:   0 Sum:      0 Ratio:   0.00%)

Rules        : 5025     (Original: 4847)
  Choice     : 32      
Atoms        : 328     
Disjunctions : 17       (Original: 100)
Bodies       : 964      (Original: 820)
  Count      : 0        (Original: 12)
Equivalences : 399      (Atom=Atom: 14 Body=Body: 15 Other: 370)
Tight        : No       (SCCs: 1 Non-Hcfs: 1 Nodes: 113 Gammas: 0)
Variables    : 442      (Eliminated:    0 Frozen:  127)
Constraints  : 1496     (Binary:  54.4% Ternary:  44.3% Other:   1.3%)

